<number of tasks>
50

<cycle time>
1000

<order strength>
0.199


<task times>
1 125
2 62
3 288
4 197
5 252
6 86
7 88
8 344
9 339
10 448
11 90
12 475
13 177
14 78
15 116
16 219
17 26
18 270
19 145
20 268
21 130
22 172
23 540
24 159
25 481
26 61
27 506
28 117
29 160
30 290
31 173
32 435
33 299
34 290
35 135
36 445
37 63
38 135
39 319
40 571
41 354
42 51
43 222
44 474
45 557
46 321
47 223
48 213
49 46
50 192

<precedence relations>
1,6
1,8
2,7
2,12
3,4
3,5
3,9
3,10
3,11
4,26
5,26
6,14
7,13
7,15
11,16
12,17
12,18
13,26
14,21
15,22
16,23
16,25
17,19
18,20
18,24
19,26
20,26
21,27
22,30
23,28
24,29
24,31
25,32
26,33
26,34
26,35
26,36
26,40
27,38
28,39
29,37
32,41
33,42
34,45
37,43
38,44
42,46
43,47
44,48
44,49
45,50

<end>
